(synth-fun verifier.error ((x0 Bool) (x1 Bool) (x2 Bool) ) Bool
)
(synth-fun mainventry ((x0 Int) (x1 Int) (x2 Int) ) Bool
)
(synth-fun mainv_12 ((x0 Int) (x1 Int) (x2 Int) (x3 Int) ) Bool
)
(synth-fun mainv_15 ((x0 Int) (x1 Int) (x2 Int) ) Bool
)
(synth-fun mainv_9 ((x0 Int) (x1 Int) (x2 Int) ) Bool
)
(synth-fun mainv_19 ((x0 Int) (x1 Int) (x2 Int) ) Bool
)
(synth-fun mainv.lr.ph ((x0 Int) (x1 Int) (x2 Int) ) Bool
)
(synth-fun mainvverifier.error.split () Bool
)
(synth-fun mainventry!_BAD () Bool
)
(synth-fun mainventry!_Cond ((x0 Int) (x1 Int) (x2 Int) (x3 Int) ) Bool
)
(synth-fun mainv_12!_Cond ((x0 Int) (x1 Int) (x2 Int) (x3 Int) ) Bool
)
(declare-var mainv%_24_0 Bool )
(declare-var mainv%_25_0 Bool )
(declare-var mainv%or.cond.i_0 Bool )
(declare-var mainv%_26_0 Int )
(declare-var mainv%_27_0 Bool )
(declare-var mainv%or.cond3.i_0 Bool )
(declare-var mainv%_23_0 Bool )
(declare-var mainv%_20_0 Bool )
(declare-var mainv%.1.i2_2 Int )
(declare-var mainv%.01.i1_2 Int )
(declare-var mainv%_10_0 Int )
(declare-var mainv%_16_0 Int )
(declare-var mainv%_13_0 Int )
(declare-var mainv%_14_0 Bool )
(declare-var mainv%_0_0 Bool )
(declare-var mainv%_1_0 Int )
(declare-var vnd_0 Int )
(declare-var mainv%_3_0 Int )
(declare-var mainv%_5_0 Int )
(declare-var mainv%_7_0 Int )
(declare-var mainv%_8_0 Bool )
(declare-var vg_0 Int )
(declare-var vfind_condition_0 Int )
(declare-var mainventry_0 Bool )
(declare-var mainv%loop.bound_0 Int )
(declare-var mainv%_2_0 Int )
(declare-var mainv_12_0 Bool )
(declare-var mainv_9_0 Bool )
(declare-var mainv_15_0 Bool )
(declare-var mainv_19_0 Bool )
(declare-var mainv%.0.i_0 Int )
(declare-var mainv%.0.i_1 Int )
(declare-var mainv%_18_0 Int )
(declare-var mainv.lr.ph_0 Bool )
(declare-var mainv%.1.i2_0 Int )
(declare-var mainv%.01.i1_0 Int )
(declare-var mainv%.1.i2_1 Int )
(declare-var mainv%.01.i1_1 Int )
(declare-var mainvverifier.error_0 Bool )
(declare-var mainv%.01.i.lcssa_0 Int )
(declare-var mainv%.1.i.lcssa_0 Int )
(declare-var mainv%.01.i.lcssa_1 Int )
(declare-var mainv%.1.i.lcssa_1 Int )
(declare-var mainvverifier.error.split_0 Bool )
(declare-var mainv%_21_0 Int )
(declare-var mainv%_22_0 Int )
(declare-var mainv.lr.ph_1 Bool )
(constraint (verifier.error false false false))
(constraint (verifier.error false true true))
(constraint (verifier.error true false true))
(constraint (verifier.error true true true))
(constraint (mainventry vg_0 vfind_condition_0 vnd_0))
(constraint (=> (and (mainv_15 mainv%loop.bound_0 mainv%_2_0 vg_0)
         true
         (= mainv%_16_0 vg_0)
         (= mainv%_18_0 (- 0 mainv%_2_0))
         (=> mainv_19_0 (and mainv_19_0 mainv_15_0))
         (=> (and mainv_19_0 mainv_15_0) (= mainv%.0.i_0 mainv%_18_0))
         (=> (and mainv_19_0 mainv_15_0) (= mainv%.0.i_1 mainv%.0.i_0))
         mainv_19_0)
    (mainv_19 mainv%loop.bound_0 mainv%_2_0 mainv%.0.i_1)))
(constraint (=> (and (mainv_9 mainv%loop.bound_0 mainv%_2_0 vg_0)
         true
         (= mainv%_10_0 vg_0)
         (=> mainv_19_0 (and mainv_19_0 mainv_9_0))
         (=> (and mainv_19_0 mainv_9_0) (= mainv%.0.i_0 mainv%_2_0))
         (=> (and mainv_19_0 mainv_9_0) (= mainv%.0.i_1 mainv%.0.i_0))
         mainv_19_0)
    (mainv_19 mainv%loop.bound_0 mainv%_2_0 mainv%.0.i_1)))
(constraint (=> (and (mainv_19 mainv%loop.bound_0 mainv%_2_0 mainv%.0.i_0)
         true
         (= mainv%_20_0 (> mainv%_2_0 2))
         (=> mainv.lr.ph_0 (and mainv.lr.ph_0 mainv_19_0))
         (=> (and mainv.lr.ph_0 mainv_19_0) mainv%_20_0)
         (=> (and mainv.lr.ph_0 mainv_19_0) (= mainv%.1.i2_0 mainv%.0.i_0))
         (=> (and mainv.lr.ph_0 mainv_19_0) (= mainv%.01.i1_0 mainv%_2_0))
         (=> (and mainv.lr.ph_0 mainv_19_0) (= mainv%.1.i2_1 mainv%.1.i2_0))
         (=> (and mainv.lr.ph_0 mainv_19_0) (= mainv%.01.i1_1 mainv%.01.i1_0))
         mainv.lr.ph_0)
    (mainv.lr.ph mainv%.1.i2_1 mainv%.01.i1_1 mainv%loop.bound_0)))
(constraint (let ((a!1 (and (mainv_19 mainv%loop.bound_0 mainv%_2_0 mainv%.0.i_0)
                true
                (= mainv%_20_0 (> mainv%_2_0 2))
                (=> mainvverifier.error_0
                    (and mainvverifier.error_0 mainv_19_0))
                (=> (and mainvverifier.error_0 mainv_19_0) (not mainv%_20_0))
                (=> (and mainvverifier.error_0 mainv_19_0)
                    (= mainv%.01.i.lcssa_0 mainv%_2_0))
                (=> (and mainvverifier.error_0 mainv_19_0)
                    (= mainv%.1.i.lcssa_0 mainv%.0.i_0))
                (=> (and mainvverifier.error_0 mainv_19_0)
                    (= mainv%.01.i.lcssa_1 mainv%.01.i.lcssa_0))
                (=> (and mainvverifier.error_0 mainv_19_0)
                    (= mainv%.1.i.lcssa_1 mainv%.1.i.lcssa_0))
                (=> mainvverifier.error_0
                    (= mainv%_24_0 (< mainv%.1.i.lcssa_1 9)))
                (=> mainvverifier.error_0
                    (= mainv%_25_0 (< mainv%.1.i.lcssa_1 mainv%.01.i.lcssa_1)))
                (=> mainvverifier.error_0
                    (= mainv%or.cond.i_0 (or mainv%_24_0 mainv%_25_0)))
                (=> mainvverifier.error_0
                    (= mainv%_26_0 (- 0 mainv%.01.i.lcssa_1)))
                (=> mainvverifier.error_0
                    (= mainv%_27_0 (< mainv%.1.i.lcssa_1 mainv%_26_0)))
                (=> mainvverifier.error_0
                    (= mainv%or.cond3.i_0 (or mainv%_27_0 mainv%or.cond.i_0)))
                (=> mainvverifier.error_0 mainv%or.cond3.i_0)
                (=> mainvverifier.error.split_0
                    (and mainvverifier.error.split_0 mainvverifier.error_0))
                mainvverifier.error.split_0)))
  (=> a!1 mainvverifier.error.split)))
(constraint (=> (and (mainv.lr.ph mainv%.1.i2_0 mainv%.01.i1_0 mainv%loop.bound_0)
         true
         (= mainv%_21_0 (+ mainv%.1.i2_0 1))
         (= mainv%_22_0 (+ mainv%.01.i1_0 (- 3)))
         (= mainv%_23_0 (> mainv%.01.i1_0 mainv%loop.bound_0))
         (=> mainv.lr.ph_1 (and mainv.lr.ph_1 mainv.lr.ph_0))
         (=> (and mainv.lr.ph_1 mainv.lr.ph_0) mainv%_23_0)
         (=> (and mainv.lr.ph_1 mainv.lr.ph_0) (= mainv%.1.i2_1 mainv%_21_0))
         (=> (and mainv.lr.ph_1 mainv.lr.ph_0) (= mainv%.01.i1_1 mainv%_22_0))
         (=> (and mainv.lr.ph_1 mainv.lr.ph_0) (= mainv%.1.i2_2 mainv%.1.i2_1))
         (=> (and mainv.lr.ph_1 mainv.lr.ph_0)
             (= mainv%.01.i1_2 mainv%.01.i1_1))
         mainv.lr.ph_1)
    (mainv.lr.ph mainv%.1.i2_2 mainv%.01.i1_2 mainv%loop.bound_0)))
(constraint (let ((a!1 (and (mainv.lr.ph mainv%.1.i2_0 mainv%.01.i1_0 mainv%loop.bound_0)
                true
                (= mainv%_21_0 (+ mainv%.1.i2_0 1))
                (= mainv%_22_0 (+ mainv%.01.i1_0 (- 3)))
                (= mainv%_23_0 (> mainv%.01.i1_0 mainv%loop.bound_0))
                (=> mainvverifier.error_0
                    (and mainvverifier.error_0 mainv.lr.ph_0))
                (=> (and mainvverifier.error_0 mainv.lr.ph_0) (not mainv%_23_0))
                (=> (and mainvverifier.error_0 mainv.lr.ph_0)
                    (= mainv%.01.i.lcssa_0 mainv%_22_0))
                (=> (and mainvverifier.error_0 mainv.lr.ph_0)
                    (= mainv%.1.i.lcssa_0 mainv%_21_0))
                (=> (and mainvverifier.error_0 mainv.lr.ph_0)
                    (= mainv%.01.i.lcssa_1 mainv%.01.i.lcssa_0))
                (=> (and mainvverifier.error_0 mainv.lr.ph_0)
                    (= mainv%.1.i.lcssa_1 mainv%.1.i.lcssa_0))
                (=> mainvverifier.error_0
                    (= mainv%_24_0 (< mainv%.1.i.lcssa_1 9)))
                (=> mainvverifier.error_0
                    (= mainv%_25_0 (< mainv%.1.i.lcssa_1 mainv%.01.i.lcssa_1)))
                (=> mainvverifier.error_0
                    (= mainv%or.cond.i_0 (or mainv%_24_0 mainv%_25_0)))
                (=> mainvverifier.error_0
                    (= mainv%_26_0 (- 0 mainv%.01.i.lcssa_1)))
                (=> mainvverifier.error_0
                    (= mainv%_27_0 (< mainv%.1.i.lcssa_1 mainv%_26_0)))
                (=> mainvverifier.error_0
                    (= mainv%or.cond3.i_0 (or mainv%_27_0 mainv%or.cond.i_0)))
                (=> mainvverifier.error_0 mainv%or.cond3.i_0)
                (=> mainvverifier.error.split_0
                    (and mainvverifier.error.split_0 mainvverifier.error_0))
                mainvverifier.error.split_0)))
  (=> a!1 mainvverifier.error.split)))
(constraint (=> (and (mainventry!_Cond vg_0 vfind_condition_0 mainv%loop.bound_0 mainv%_2_0)
         (mainventry vg_0 vfind_condition_0 vnd_0)
         true
         (= mainv%_0_0 (= mainv%loop.bound_0 5))
         mainv%_0_0
         (= mainv%_1_0 vnd_0)
         (= mainv%_3_0 vnd_0)
         (= mainv%_5_0 vnd_0)
         (= mainv%_7_0 vfind_condition_0)
         (=> mainv_12_0 (and mainv_12_0 mainventry_0))
         (=> (and mainv_12_0 mainventry_0) (not mainv%_8_0))
         mainv_12_0)
    (mainv_12 mainv%loop.bound_0 mainv%_2_0 vg_0 vfind_condition_0)))
(constraint (=> (and (not (mainventry!_Cond vg_0
                                vfind_condition_0
                                mainv%loop.bound_0
                                mainv%_2_0))
         (mainventry vg_0 vfind_condition_0 vnd_0)
         true
         (= mainv%_0_0 (= mainv%loop.bound_0 5))
         mainv%_0_0
         (= mainv%_1_0 vnd_0)
         (= mainv%_3_0 vnd_0)
         (= mainv%_5_0 vnd_0)
         (= mainv%_7_0 vfind_condition_0)
         (=> mainv_9_0 (and mainv_9_0 mainventry_0))
         (=> (and mainv_9_0 mainventry_0) mainv%_8_0)
         mainv_9_0)
    (mainv_9 mainv%loop.bound_0 mainv%_2_0 vg_0)))
(constraint (=> (and (mainv_12!_Cond vg_0 mainv%loop.bound_0 mainv%_2_0 mainv%.0.i_1)
         (mainv_12 mainv%loop.bound_0 mainv%_2_0 vg_0 vfind_condition_0)
         true
         (= mainv%_13_0 vfind_condition_0)
         (=> mainv_15_0 (and mainv_15_0 mainv_12_0))
         (=> (and mainv_15_0 mainv_12_0) mainv%_14_0)
         mainv_15_0)
    (mainv_15 mainv%loop.bound_0 mainv%_2_0 vg_0)))
(constraint (=> (and (not (mainv_12!_Cond vg_0 mainv%loop.bound_0 mainv%_2_0 mainv%.0.i_1))
         (mainv_12 mainv%loop.bound_0 mainv%_2_0 vg_0 vfind_condition_0)
         true
         (= mainv%_13_0 vfind_condition_0)
         (=> mainv_19_0 (and mainv_19_0 mainv_12_0))
         (=> (and mainv_19_0 mainv_12_0) (not mainv%_14_0))
         (=> (and mainv_19_0 mainv_12_0) (= mainv%.0.i_0 9))
         (=> (and mainv_19_0 mainv_12_0) (= mainv%.0.i_1 mainv%.0.i_0))
         mainv_19_0)
    (mainv_19 mainv%loop.bound_0 mainv%_2_0 mainv%.0.i_1)))
(constraint (=> mainvverifier.error.split false))
(check-synth)
